k = 32;
b = 6;
AtomicConstraints =  [|
1, 13|
	1, 14|
	1, 2|
	1, 3|
	1, 4|
	1, 5|
	1, 15|
	1, 16|
	1, 17|
	1, 18|
	1, 19|
	1, 20|
	13, 17|
	13, 18|
	13, 19|
	13, 20|
	14, 17|
	14, 18|
	14, 19|
	14, 20|
	2, 13|
	2, 14|
	2, 17|
	2, 18|
	2, 19|
	2, 20|
	3, 13|
	3, 14|
	3, 17|
	3, 18|
	3, 19|
	3, 20|
	4, 13|
	4, 14|
	4, 2|
	4, 3|
	4, 17|
	4, 18|
	4, 19|
	4, 20|
	5, 13|
	5, 14|
	5, 2|
	5, 3|
	5, 17|
	5, 18|
	5, 19|
	5, 20|
	15, 13|
	15, 14|
	15, 2|
	15, 3|
	15, 4|
	15, 5|
	15, 17|
	15, 18|
	15, 19|
	15, 20|
	16, 13|
	16, 14|
	16, 2|
	16, 3|
	16, 4|
	16, 5|
	16, 17|
	16, 18|
	16, 19|
	16, 20|
	6, 13|
	6, 14|
	6, 2|
	6, 3|
	6, 4|
	6, 5|
	6, 15|
	6, 16|
	6, 17|
	6, 18|
	6, 19|
	6, 20|
	21, 17|
	21, 18|
	21, 19|
	21, 20|
	21, 27|
	21, 28|
	21, 29|
	21, 30|
	21, 31|
	21, 8|
	21, 32|
	12, 17|
	12, 18|
	12, 19|
	12, 20|
	12, 27|
	12, 10|
	12, 28|
	12, 29|
	12, 30|
	12, 31|
	12, 8|
	12, 32|
	22, 17|
	22, 18|
	22, 19|
	22, 20|
	22, 27|
	22, 10|
	22, 28|
	22, 29|
	22, 30|
	22, 31|
	22, 32|
	23, 17|
	23, 18|
	23, 19|
	23, 20|
	23, 28|
	23, 29|
	23, 9|
	23, 30|
	23, 31|
	7, 17|
	7, 18|
	7, 19|
	7, 20|
	7, 28|
	7, 29|
	7, 9|
	7, 30|
	7, 31|
	7, 8|
	24, 17|
	24, 18|
	24, 19|
	24, 20|
	24, 28|
	24, 29|
	24, 30|
	24, 31|
	24, 8|
	24, 32|
	25, 17|
	25, 18|
	25, 19|
	25, 20|
	25, 27|
	25, 10|
	25, 28|
	25, 29|
	25, 30|
	25, 31|
	11, 17|
	11, 18|
	11, 19|
	11, 20|
	11, 27|
	11, 10|
	11, 28|
	11, 29|
	11, 30|
	11, 31|
	26, 17|
	26, 18|
	26, 19|
	26, 20|
	26, 28|
	26, 29|
	26, 30|
	26, 31|
	27, 17|
	27, 18|
	27, 19|
	27, 20|
	27, 29|
	27, 30|
	27, 31|
	10, 17|
	10, 18|
	10, 19|
	10, 20|
	10, 29|
	10, 30|
	10, 31|
	28, 17|
	28, 18|
	28, 19|
	28, 20|
	28, 29|
	28, 30|
	28, 31|
	29, 17|
	29, 18|
	29, 19|
	29, 20|
	9, 17|
	9, 18|
	9, 19|
	9, 20|
	30, 17|
	30, 18|
	30, 19|
	30, 20|
	31, 17|
	31, 18|
	31, 19|
	31, 20|
	31, 29|
	31, 30|
	8, 17|
	8, 18|
	8, 19|
	8, 20|
	8, 29|
	8, 30|
	32, 17|
	32, 18|
	32, 19|
	32, 20|
	32, 29|
	32, 30|];
DisjunctiveConstraints =  [|4, 8, 4, 2|
	15, 3, 9, 15|
	15, 8, 15, 2|
	6, 3, 9, 6|
	6, 8, 6, 2|
	12, 21, 12, 22|
	12, 8, 12, 2|
	22, 8, 2, 22|
	7, 23, 7, 24|
	7, 9, 7, 3|
	24, 9, 3, 24|
	11, 25, 11, 26|
	26, 10, 4, 26|
	10, 27, 10, 28|
	9, 29, 9, 30|
	8, 31, 8, 32|];
SoftAtomicConstraints =  [|
3, 2|
5, 4|
1, 6|
23, 7|
31, 8|
29, 9|
27, 10|
25, 11|
21, 12|
14, 13|
16, 15|
18, 17|
20, 19|
17, 20|
12, 22|
7, 24|
11, 26|
10, 28|
9, 30|
8, 32|];
DirectSuccessors =  [1,
2,
7];
